(set-info :smt-lib-version 2.6)
(set-logic QF_AUFBV)
(set-info :source |These benchmarks are derived from a semi-automated proof of functional equivalence between two implementations of an Elliptic Curve Digital Signature Algorithm (ECDSA). More information about problem they encode can be found here: http://cps-vo.org/node/3405|)
(set-info :category "industrial")
(set-info :status unsat)
(declare-fun x241 () (_ BitVec 1))
(declare-fun x239 () (_ BitVec 1))
(declare-fun x237 () (_ BitVec 1))
(declare-fun x235 () (_ BitVec 1))
(declare-fun x233 () (_ BitVec 1))
(declare-fun x231 () (_ BitVec 1))
(declare-fun x229 () (_ BitVec 1))
(declare-fun x227 () (_ BitVec 1))
(declare-fun x225 () (_ BitVec 1))
(declare-fun x223 () (_ BitVec 1))
(declare-fun x222 () (_ BitVec 1))
(declare-fun x221 () (_ BitVec 384))
(declare-fun x220 () (_ BitVec 384))
(declare-fun x219 () (_ BitVec 1))
(declare-fun x217 () (_ BitVec 1))
(declare-fun x215 () (_ BitVec 1))
(declare-fun x214 () (_ BitVec 1))
(declare-fun x213 () (_ BitVec 384))
(declare-fun x212 () (_ BitVec 1))
(declare-fun x210 () (_ BitVec 1))
(declare-fun x209 () (_ BitVec 1))
(declare-fun x207 () (_ BitVec 1))
(declare-fun x206 () (_ BitVec 1))
(declare-fun x205 () (_ BitVec 384))
(declare-fun x204 () (_ BitVec 384))
(declare-fun x202 () (_ BitVec 1))
(declare-fun x200 () (_ BitVec 1))
(declare-fun x198 () (_ BitVec 1))
(declare-fun x196 () (_ BitVec 1))
(declare-fun x194 () (_ BitVec 1))
(declare-fun x192 () (_ BitVec 1))
(declare-fun x190 () (_ BitVec 1))
(declare-fun x189 () (_ BitVec 1))
(declare-fun x188 () (_ BitVec 384))
(declare-fun x187 () (_ BitVec 1))
(declare-fun x185 () (_ BitVec 1))
(declare-fun x183 () (_ BitVec 1))
(declare-fun x182 () (_ BitVec 1))
(declare-fun x181 () (_ BitVec 384))
(declare-fun x179 () (_ BitVec 1))
(declare-fun x177 () (_ BitVec 1))
(declare-fun x176 () (_ BitVec 1))
(declare-fun x174 () (_ BitVec 1))
(declare-fun x173 () (_ BitVec 1))
(declare-fun x172 () (Array (_ BitVec 4) (_ BitVec 32)))
(declare-fun x170 () (_ BitVec 1))
(declare-fun x168 () (_ BitVec 1))
(declare-fun x167 () (_ BitVec 1))
(declare-fun x165 () (_ BitVec 1))
(declare-fun x163 () (_ BitVec 1))
(declare-fun x162 () (_ BitVec 1))
(declare-fun x161 () (_ BitVec 1))
(declare-fun x159 () (_ BitVec 1))
(declare-fun x157 () (_ BitVec 1))
(declare-fun x155 () (_ BitVec 1))
(declare-fun x153 () (_ BitVec 1))
(declare-fun x152 () (_ BitVec 1))
(declare-fun x151 () (_ BitVec 384))
(declare-fun x150 () (_ BitVec 384))
(declare-fun x149 () (_ BitVec 1))
(declare-fun x147 () (_ BitVec 1))
(declare-fun x145 () (_ BitVec 1))
(declare-fun x143 () (_ BitVec 1))
(declare-fun x142 () (_ BitVec 1))
(declare-fun x141 () (_ BitVec 384))
(declare-fun x140 () (_ BitVec 1))
(declare-fun x138 () (_ BitVec 1))
(declare-fun x137 () (_ BitVec 1))
(declare-fun x136 () (_ BitVec 384))
(declare-fun x135 () (_ BitVec 384))
(declare-fun x133 () (_ BitVec 1))
(declare-fun x131 () (_ BitVec 1))
(declare-fun x130 () (_ BitVec 1))
(declare-fun x128 () (_ BitVec 1))
(declare-fun x126 () (_ BitVec 1))
(declare-fun x124 () (_ BitVec 1))
(declare-fun x122 () (_ BitVec 1))
(declare-fun x120 () (_ BitVec 1))
(declare-fun x118 () (_ BitVec 1))
(declare-fun x116 () (_ BitVec 1))
(declare-fun x114 () (_ BitVec 1))
(declare-fun x113 () (_ BitVec 1))
(declare-fun x112 () (_ BitVec 384))
(declare-fun x111 () (_ BitVec 1))
(declare-fun x109 () (_ BitVec 1))
(declare-fun x108 () (_ BitVec 1))
(declare-fun x107 () (_ BitVec 384))
(declare-fun x106 () (_ BitVec 1152))
(declare-fun x105 ((_ BitVec 1152)) (_ BitVec 1152))
(declare-fun x104 () (_ BitVec 1152))
(declare-fun x103 () (_ BitVec 384))
(declare-fun x102 () (_ BitVec 384))
(declare-fun x101 () (_ BitVec 384))
(declare-fun x100 () (_ BitVec 384))
(declare-fun x98 () (_ BitVec 1))
(declare-fun x96 () (_ BitVec 1))
(declare-fun x95 () (_ BitVec 1))
(declare-fun x93 () (_ BitVec 1))
(declare-fun x92 () (_ BitVec 1))
(declare-fun x91 () (_ BitVec 384))
(declare-fun x90 () (_ BitVec 384))
(declare-fun x89 () (_ BitVec 384))
(declare-fun x88 () (_ BitVec 384))
(declare-fun x87 () (_ BitVec 384))
(declare-fun x86 () (_ BitVec 384))
(declare-fun x85 () (_ BitVec 384))
(declare-fun x84 () (_ BitVec 384))
(declare-fun x83 ((_ BitVec 384) (_ BitVec 384)) (_ BitVec 384))
(declare-fun x82 () (_ BitVec 384))
(declare-fun x81 () (_ BitVec 384))
(declare-fun x80 () (_ BitVec 384))
(declare-fun x79 () (_ BitVec 384))
(declare-fun x77 () (_ BitVec 1))
(declare-fun x75 () (_ BitVec 1))
(declare-fun x74 () (_ BitVec 1))
(declare-fun x73 () (_ BitVec 1))
(declare-fun x71 () (_ BitVec 1))
(declare-fun x69 () (_ BitVec 1))
(declare-fun x67 () (_ BitVec 1))
(declare-fun x65 () (_ BitVec 1))
(declare-fun x64 () (_ BitVec 1))
(declare-fun x63 () (_ BitVec 1))
(declare-fun x61 () (_ BitVec 1))
(declare-fun x59 () (_ BitVec 1))
(declare-fun x57 () (_ BitVec 1))
(declare-fun x55 () (_ BitVec 1))
(declare-fun x54 () (_ BitVec 1))
(declare-fun x52 () (_ BitVec 1))
(declare-fun x51 () (_ BitVec 1))
(declare-fun x50 () (_ BitVec 384))
(declare-fun x49 () (_ BitVec 384))
(declare-fun x48 () (_ BitVec 384))
(declare-fun x47 () (_ BitVec 384))
(declare-fun x46 () (_ BitVec 384))
(declare-fun x45 () (_ BitVec 384))
(declare-fun x44 () (_ BitVec 384))
(declare-fun x42 () (_ BitVec 1))
(declare-fun x41 () (_ BitVec 1))
(declare-fun x39 () (_ BitVec 1))
(declare-fun x37 () (_ BitVec 1))
(declare-fun x36 () (_ BitVec 1))
(declare-fun x35 () (_ BitVec 384))
(declare-fun x33 () (_ BitVec 1))
(declare-fun x32 () (_ BitVec 1))
(declare-fun x31 () (_ BitVec 384))
(declare-fun x30 ((_ BitVec 384) (_ BitVec 384)) (_ BitVec 384))
(declare-fun x29 () (_ BitVec 384))
(declare-fun x28 ((_ BitVec 384) (_ BitVec 384)) (_ BitVec 384))
(declare-fun x27 () (_ BitVec 384))
(declare-fun x26 ((_ BitVec 384)) (_ BitVec 384))
(declare-fun x25 () (_ BitVec 384))
(declare-fun x24 () (_ BitVec 384))
(declare-fun x23 () (_ BitVec 384))
(declare-fun x22 () (Array (_ BitVec 5) (_ BitVec 32)))
(declare-fun x21 () (Array (_ BitVec 4) (_ BitVec 32)))
(declare-fun x20 () (Array (_ BitVec 4) (_ BitVec 32)))
(declare-fun x19 () (Array (_ BitVec 5) (_ BitVec 32)))
(declare-fun x18 () (Array (_ BitVec 5) (_ BitVec 32)))
(declare-fun x17 () (Array (_ BitVec 5) (_ BitVec 32)))
(declare-fun x16 () (Array (_ BitVec 5) (_ BitVec 32)))
(declare-fun x15 () (Array (_ BitVec 5) (_ BitVec 32)))
(declare-fun x14 () (Array (_ BitVec 5) (_ BitVec 32)))
(declare-fun x13 () (Array (_ BitVec 5) (_ BitVec 32)))
(declare-fun x12 () (Array (_ BitVec 5) (_ BitVec 32)))
(declare-fun x11 () (Array (_ BitVec 5) (_ BitVec 32)))
(declare-fun x10 () (Array (_ BitVec 5) (_ BitVec 32)))
(declare-fun x9 () (Array (_ BitVec 5) (_ BitVec 32)))
(declare-fun x8 () (Array (_ BitVec 4) (_ BitVec 32)))
(declare-fun x7 () (Array (_ BitVec 4) (_ BitVec 32)))
(declare-fun x6 () (Array (_ BitVec 4) (_ BitVec 32)))
(declare-fun x5 () (Array (_ BitVec 5) (_ BitVec 32)))
(declare-fun x4 () (Array (_ BitVec 4) (_ BitVec 32)))
(declare-fun x3 () (Array (_ BitVec 4) (_ BitVec 32)))
(declare-fun x2 () (Array (_ BitVec 4) (_ BitVec 32)))
(declare-fun x1 () (Array (_ BitVec 4) (_ BitVec 32)))
(declare-fun x0 () (Array (_ BitVec 4) (_ BitVec 32)))
(declare-fun p242 () Bool)
(declare-fun p240 () Bool)
(declare-fun p238 () Bool)
(declare-fun p236 () Bool)
(declare-fun p234 () Bool)
(declare-fun p232 () Bool)
(declare-fun p230 () Bool)
(declare-fun p228 () Bool)
(declare-fun p226 () Bool)
(declare-fun p224 () Bool)
(declare-fun p218 () Bool)
(declare-fun p216 () Bool)
(declare-fun p211 () Bool)
(declare-fun p208 () Bool)
(declare-fun p203 () Bool)
(declare-fun p201 () Bool)
(declare-fun p199 () Bool)
(declare-fun p197 () Bool)
(declare-fun p195 () Bool)
(declare-fun p193 () Bool)
(declare-fun p191 () Bool)
(declare-fun p186 () Bool)
(declare-fun p184 () Bool)
(declare-fun p180 () Bool)
(declare-fun p178 () Bool)
(declare-fun p175 () Bool)
(declare-fun p171 () Bool)
(declare-fun p169 () Bool)
(declare-fun p166 () Bool)
(declare-fun p164 () Bool)
(declare-fun p160 () Bool)
(declare-fun p158 () Bool)
(declare-fun p156 () Bool)
(declare-fun p154 () Bool)
(declare-fun p148 () Bool)
(declare-fun p146 () Bool)
(declare-fun p144 () Bool)
(declare-fun p139 () Bool)
(declare-fun p134 () Bool)
(declare-fun p132 () Bool)
(declare-fun p129 () Bool)
(declare-fun p127 () Bool)
(declare-fun p125 () Bool)
(declare-fun p123 () Bool)
(declare-fun p121 () Bool)
(declare-fun p119 () Bool)
(declare-fun p117 () Bool)
(declare-fun p115 () Bool)
(declare-fun p110 () Bool)
(declare-fun p99 () Bool)
(declare-fun p97 () Bool)
(declare-fun p94 () Bool)
(declare-fun p78 () Bool)
(declare-fun p76 () Bool)
(declare-fun p72 () Bool)
(declare-fun p70 () Bool)
(declare-fun p68 () Bool)
(declare-fun p66 () Bool)
(declare-fun p62 () Bool)
(declare-fun p60 () Bool)
(declare-fun p58 () Bool)
(declare-fun p56 () Bool)
(declare-fun p53 () Bool)
(declare-fun p43 () Bool)
(declare-fun p40 () Bool)
(declare-fun p38 () Bool)
(declare-fun p34 () Bool)
(assert (= p242 (and p125 p240)))
(assert (= x241 (bvand x124 x239)))
(assert (= p240 (or p127 p238)))
(assert (= x239 (bvor x126 x237)))
(assert (= p238 (and p160 p236)))
(assert (= x237 (bvand x159 x235)))
(assert (= p236 (or (= x35 (_ bv0 384)) p234)))
(assert (= x235 (bvor x161 x233)))
(assert (= p234 (and p199 p232)))
(assert (= x233 (bvand x198 x231)))
(assert (= p232 (or p201 p230)))
(assert (= x231 (bvor x200 x229)))
(assert (= p230 (and p208 p228)))
(assert (= x229 (bvand x207 x227)))
(assert (= p228 (or (= x35 (_ bv0 384)) p226)))
(assert (= x227 (bvor x209 x225)))
(assert (= p226 (and p218 p224)))
(assert (= x225 (bvand x217 x223)))
(assert (= p224 (or (= x31 (_ bv0 384)) (= x220 x221))))
(assert (= x223 (bvor x219 x222)))
(assert (= x222 (ite (= x220 x221) (_ bv1 1) (_ bv0 1))))
(assert (= x221 (x30 x80 x89)))
(assert (= x220 ((_ extract 383 0) x106)))
(assert (= x219 (ite (= x31 (_ bv0 384)) (_ bv1 1) (_ bv0 1))))
(assert (= p218 (or p211 p216)))
(assert (= x217 (bvor x210 x215)))
(assert (= p216 (or (= x50 (_ bv0 384)) (= x213 (_ bv1 384)))))
(assert (= x215 (bvor x212 x214)))
(assert (= x214 (ite (= x213 (_ bv1 384)) (_ bv1 1) (_ bv0 1))))
(assert (= x213 ((_ extract 383 0) x106)))
(assert (= x212 (ite (= x50 (_ bv0 384)) (_ bv1 1) (_ bv0 1))))
(assert (= p211 (not (= x31 (_ bv0 384)))))
(assert (= x210 (bvnot x32)))
(assert (= x209 (ite (= x35 (_ bv0 384)) (_ bv1 1) (_ bv0 1))))
(assert (= p208 (or p203 (= x204 x205))))
(assert (= x207 (bvor x202 x206)))
(assert (= x206 (ite (= x204 x205) (_ bv1 1) (_ bv0 1))))
(assert (= x205 (concat (concat (concat (concat (concat (concat (concat (concat (concat (concat (concat (select x1 (_ bv11 4)) (select x1 (_ bv10 4))) (select x1 (_ bv9 4))) (select x1 (_ bv8 4))) (select x1 (_ bv7 4))) (select x1 (_ bv6 4))) (select x1 (_ bv5 4))) (select x1 (_ bv4 4))) (select x1 (_ bv3 4))) (select x1 (_ bv2 4))) (select x1 (_ bv1 4))) (select x1 (_ bv0 4)))))
(assert (= x204 ((_ extract 383 0) x106)))
(assert (= p203 (not (= x35 (_ bv0 384)))))
(assert (= x202 (bvnot x36)))
(assert (= p201 (and p56 p58)))
(assert (= x200 (bvand x55 x57)))
(assert (= p199 (or p169 p197)))
(assert (= x198 (bvor x168 x196)))
(assert (= p197 (and p175 p195)))
(assert (= x196 (bvand x174 x194)))
(assert (= p195 (or (= x35 (_ bv0 384)) p193)))
(assert (= x194 (bvor x176 x192)))
(assert (= p193 (and p186 p191)))
(assert (= x192 (bvand x185 x190)))
(assert (= p191 (or (= x31 (_ bv0 384)) (= (_ bv1 384) x188))))
(assert (= x190 (bvor x187 x189)))
(assert (= x189 (ite (= (_ bv1 384) x188) (_ bv1 1) (_ bv0 1))))
(assert (= x188 (x30 x80 x89)))
(assert (= x187 (ite (= x31 (_ bv0 384)) (_ bv1 1) (_ bv0 1))))
(assert (= p186 (or p178 p184)))
(assert (= x185 (bvor x177 x183)))
(assert (= p184 (or p180 (= (_ bv1 384) x181))))
(assert (= x183 (bvor x179 x182)))
(assert (= x182 (ite (= (_ bv1 384) x181) (_ bv1 1) (_ bv0 1))))
(assert (= x181 ((_ extract 383 0) x106)))
(assert (= p180 (not (= x50 (_ bv0 384)))))
(assert (= x179 (bvnot x51)))
(assert (= p178 (not (= x31 (_ bv0 384)))))
(assert (= x177 (bvnot x32)))
(assert (= x176 (ite (= x35 (_ bv0 384)) (_ bv1 1) (_ bv0 1))))
(assert (= p175 (or p171 (= x172 x1))))
(assert (= x174 (bvor x170 x173)))
(assert (= x173 (ite (= x172 x1) (_ bv1 1) (_ bv0 1))))
(assert (= (select x172 (_ bv11 4)) (_ bv0 32)))
(assert (= (select x172 (_ bv10 4)) (_ bv0 32)))
(assert (= (select x172 (_ bv9 4)) (_ bv0 32)))
(assert (= (select x172 (_ bv8 4)) (_ bv0 32)))
(assert (= (select x172 (_ bv7 4)) (_ bv0 32)))
(assert (= (select x172 (_ bv6 4)) (_ bv0 32)))
(assert (= (select x172 (_ bv5 4)) (_ bv0 32)))
(assert (= (select x172 (_ bv4 4)) (_ bv0 32)))
(assert (= (select x172 (_ bv3 4)) (_ bv0 32)))
(assert (= (select x172 (_ bv2 4)) (_ bv0 32)))
(assert (= (select x172 (_ bv1 4)) (_ bv0 32)))
(assert (= (select x172 (_ bv0 4)) (_ bv1 32)))
(assert (= (select x172 (_ bv15 4)) (_ bv0 32)))
(assert (= (select x172 (_ bv14 4)) (_ bv0 32)))
(assert (= (select x172 (_ bv13 4)) (_ bv0 32)))
(assert (= (select x172 (_ bv12 4)) (_ bv0 32)))
(assert (= p171 (not (= x35 (_ bv0 384)))))
(assert (= x170 (bvnot x36)))
(assert (= p169 (or p166 (= x35 (_ bv0 384)))))
(assert (= x168 (bvor x165 x167)))
(assert (= x167 (ite (= x35 (_ bv0 384)) (_ bv1 1) (_ bv0 1))))
(assert (= p166 (or (= x50 (_ bv0 384)) p164)))
(assert (= x165 (bvor x162 x163)))
(assert (= p164 (not (= x31 (_ bv0 384)))))
(assert (= x163 (bvnot x32)))
(assert (= x162 (ite (= x50 (_ bv0 384)) (_ bv1 1) (_ bv0 1))))
(assert (= x161 (ite (= x35 (_ bv0 384)) (_ bv1 1) (_ bv0 1))))
(assert (= p160 (or p129 p158)))
(assert (= x159 (bvor x128 x157)))
(assert (= p158 (or (= x35 (_ bv0 384)) p156)))
(assert (= x157 (bvor x130 x155)))
(assert (= p156 (and p148 p154)))
(assert (= x155 (bvand x147 x153)))
(assert (= p154 (or (= x31 (_ bv0 384)) (= x150 x151))))
(assert (= x153 (bvor x149 x152)))
(assert (= x152 (ite (= x150 x151) (_ bv1 1) (_ bv0 1))))
(assert (= x151 (x30 x80 x89)))
(assert (= x150 (concat (concat (concat (concat (concat (concat (concat (concat (concat (concat (concat (select x1 (_ bv11 4)) (select x1 (_ bv10 4))) (select x1 (_ bv9 4))) (select x1 (_ bv8 4))) (select x1 (_ bv7 4))) (select x1 (_ bv6 4))) (select x1 (_ bv5 4))) (select x1 (_ bv4 4))) (select x1 (_ bv3 4))) (select x1 (_ bv2 4))) (select x1 (_ bv1 4))) (select x1 (_ bv0 4)))))
(assert (= x149 (ite (= x31 (_ bv0 384)) (_ bv1 1) (_ bv0 1))))
(assert (= p148 (or p132 p146)))
(assert (= x147 (bvor x131 x145)))
(assert (= p146 (and p139 p144)))
(assert (= x145 (bvand x138 x143)))
(assert (= p144 (or (= x50 (_ bv0 384)) (= x141 (_ bv1 384)))))
(assert (= x143 (bvor x140 x142)))
(assert (= x142 (ite (= x141 (_ bv1 384)) (_ bv1 1) (_ bv0 1))))
(assert (= x141 (concat (concat (concat (concat (concat (concat (concat (concat (concat (concat (concat (select x1 (_ bv11 4)) (select x1 (_ bv10 4))) (select x1 (_ bv9 4))) (select x1 (_ bv8 4))) (select x1 (_ bv7 4))) (select x1 (_ bv6 4))) (select x1 (_ bv5 4))) (select x1 (_ bv4 4))) (select x1 (_ bv3 4))) (select x1 (_ bv2 4))) (select x1 (_ bv1 4))) (select x1 (_ bv0 4)))))
(assert (= x140 (ite (= x50 (_ bv0 384)) (_ bv1 1) (_ bv0 1))))
(assert (= p139 (or p134 (= x135 x136))))
(assert (= x138 (bvor x133 x137)))
(assert (= x137 (ite (= x135 x136) (_ bv1 1) (_ bv0 1))))
(assert (= x136 ((_ extract 383 0) x106)))
(assert (= x135 (concat (concat (concat (concat (concat (concat (concat (concat (concat (concat (concat (select x1 (_ bv11 4)) (select x1 (_ bv10 4))) (select x1 (_ bv9 4))) (select x1 (_ bv8 4))) (select x1 (_ bv7 4))) (select x1 (_ bv6 4))) (select x1 (_ bv5 4))) (select x1 (_ bv4 4))) (select x1 (_ bv3 4))) (select x1 (_ bv2 4))) (select x1 (_ bv1 4))) (select x1 (_ bv0 4)))))
(assert (= p134 (not (= x50 (_ bv0 384)))))
(assert (= x133 (bvnot x51)))
(assert (= p132 (not (= x31 (_ bv0 384)))))
(assert (= x131 (bvnot x32)))
(assert (= x130 (ite (= x35 (_ bv0 384)) (_ bv1 1) (_ bv0 1))))
(assert (= p129 (not (= x35 (_ bv0 384)))))
(assert (= x128 (bvnot x36)))
(assert (= p127 (and p34 p38)))
(assert (= x126 (bvand x33 x37)))
(assert (= p125 (or p76 p123)))
(assert (= x124 (bvor x75 x122)))
(assert (= p123 (and p94 p121)))
(assert (= x122 (bvand x93 x120)))
(assert (= p121 (or (= x35 (_ bv0 384)) p119)))
(assert (= x120 (bvor x95 x118)))
(assert (= p119 (or p97 p117)))
(assert (= x118 (bvor x96 x116)))
(assert (= p117 (and p110 p115)))
(assert (= x116 (bvand x109 x114)))
(assert (= p115 (or (= x50 (_ bv0 384)) (= x112 (_ bv1 384)))))
(assert (= x114 (bvor x111 x113)))
(assert (= x113 (ite (= x112 (_ bv1 384)) (_ bv1 1) (_ bv0 1))))
(assert (= x112 (x30 x80 x89)))
(assert (= x111 (ite (= x50 (_ bv0 384)) (_ bv1 1) (_ bv0 1))))
(assert (= p110 (or p99 (= x100 x107))))
(assert (= x109 (bvor x98 x108)))
(assert (= x108 (ite (= x100 x107) (_ bv1 1) (_ bv0 1))))
(assert (= x107 ((_ extract 383 0) x106)))
(assert (= x106 (x105 x104)))
(assert (= x104 (concat x103 (concat x102 x101))))
(assert (= x103 (concat (concat (concat (concat (concat (concat (concat (concat (concat (concat (concat (select x2 (_ bv11 4)) (select x2 (_ bv10 4))) (select x2 (_ bv9 4))) (select x2 (_ bv8 4))) (select x2 (_ bv7 4))) (select x2 (_ bv6 4))) (select x2 (_ bv5 4))) (select x2 (_ bv4 4))) (select x2 (_ bv3 4))) (select x2 (_ bv2 4))) (select x2 (_ bv1 4))) (select x2 (_ bv0 4)))))
(assert (= x102 (concat (concat (concat (concat (concat (concat (concat (concat (concat (concat (concat (select x3 (_ bv11 4)) (select x3 (_ bv10 4))) (select x3 (_ bv9 4))) (select x3 (_ bv8 4))) (select x3 (_ bv7 4))) (select x3 (_ bv6 4))) (select x3 (_ bv5 4))) (select x3 (_ bv4 4))) (select x3 (_ bv3 4))) (select x3 (_ bv2 4))) (select x3 (_ bv1 4))) (select x3 (_ bv0 4)))))
(assert (= x101 (concat (concat (concat (concat (concat (concat (concat (concat (concat (concat (concat (select x4 (_ bv11 4)) (select x4 (_ bv10 4))) (select x4 (_ bv9 4))) (select x4 (_ bv8 4))) (select x4 (_ bv7 4))) (select x4 (_ bv6 4))) (select x4 (_ bv5 4))) (select x4 (_ bv4 4))) (select x4 (_ bv3 4))) (select x4 (_ bv2 4))) (select x4 (_ bv1 4))) (select x4 (_ bv0 4)))))
(assert (= x100 (x30 x80 x89)))
(assert (= p99 (not (= x50 (_ bv0 384)))))
(assert (= x98 (bvnot x51)))
(assert (= p97 (not (= x31 (_ bv0 384)))))
(assert (= x96 (bvnot x32)))
(assert (= x95 (ite (= x35 (_ bv0 384)) (_ bv1 1) (_ bv0 1))))
(assert (= p94 (or p78 (= x90 x91))))
(assert (= x93 (bvor x77 x92)))
(assert (= x92 (ite (= x90 x91) (_ bv1 1) (_ bv0 1))))
(assert (= x91 (concat (concat (concat (concat (concat (concat (concat (concat (concat (concat (concat (select x1 (_ bv11 4)) (select x1 (_ bv10 4))) (select x1 (_ bv9 4))) (select x1 (_ bv8 4))) (select x1 (_ bv7 4))) (select x1 (_ bv6 4))) (select x1 (_ bv5 4))) (select x1 (_ bv4 4))) (select x1 (_ bv3 4))) (select x1 (_ bv2 4))) (select x1 (_ bv1 4))) (select x1 (_ bv0 4)))))
(assert (= x90 (x30 x80 x89)))
(assert (= x89 (x28 x86 x88)))
(assert (= x88 (x26 x87)))
(assert (= x87 (x30 x23 x29)))
(assert (= x86 (x30 x84 x85)))
(assert (= x85 (x30 x23 x29)))
(assert (= x84 (x83 x81 x82)))
(assert (= x82 (concat (concat (concat (concat (concat (concat (concat (concat (concat (concat (concat (select x4 (_ bv11 4)) (select x4 (_ bv10 4))) (select x4 (_ bv9 4))) (select x4 (_ bv8 4))) (select x4 (_ bv7 4))) (select x4 (_ bv6 4))) (select x4 (_ bv5 4))) (select x4 (_ bv4 4))) (select x4 (_ bv3 4))) (select x4 (_ bv2 4))) (select x4 (_ bv1 4))) (select x4 (_ bv0 4)))))
(assert (= x81 (concat (concat (concat (concat (concat (concat (concat (concat (concat (concat (concat (select x4 (_ bv11 4)) (select x4 (_ bv10 4))) (select x4 (_ bv9 4))) (select x4 (_ bv8 4))) (select x4 (_ bv7 4))) (select x4 (_ bv6 4))) (select x4 (_ bv5 4))) (select x4 (_ bv4 4))) (select x4 (_ bv3 4))) (select x4 (_ bv2 4))) (select x4 (_ bv1 4))) (select x4 (_ bv0 4)))))
(assert (= x80 (x26 x79)))
(assert (= x79 (x30 x44 x49)))
(assert (= p78 (not (= x35 (_ bv0 384)))))
(assert (= x77 (bvnot x36)))
(assert (= p76 (or (= x31 (_ bv0 384)) (= x35 (_ bv0 384)))))
(assert (= x75 (bvor x73 x74)))
(assert (= x74 (ite (= x35 (_ bv0 384)) (_ bv1 1) (_ bv0 1))))
(assert (= x73 (ite (= x31 (_ bv0 384)) (_ bv1 1) (_ bv0 1))))
(assert (= p72 (or p62 p70)))
(assert (= x71 (bvor x61 x69)))
(assert (= p70 (and p66 p68)))
(assert (= x69 (bvand x65 x67)))
(assert (= p68 (not (= x35 (_ bv0 384)))))
(assert (= x67 (bvnot x36)))
(assert (= p66 (and (= x50 (_ bv0 384)) (= x31 (_ bv0 384)))))
(assert (= x65 (bvand x63 x64)))
(assert (= x64 (ite (= x31 (_ bv0 384)) (_ bv1 1) (_ bv0 1))))
(assert (= x63 (ite (= x50 (_ bv0 384)) (_ bv1 1) (_ bv0 1))))
(assert (= p62 (or p43 p60)))
(assert (= x61 (bvor x42 x59)))
(assert (= p60 (and p56 p58)))
(assert (= x59 (bvand x55 x57)))
(assert (= p58 (not (= x35 (_ bv0 384)))))
(assert (= x57 (bvnot x36)))
(assert (= p56 (and p53 (= x31 (_ bv0 384)))))
(assert (= x55 (bvand x52 x54)))
(assert (= x54 (ite (= x31 (_ bv0 384)) (_ bv1 1) (_ bv0 1))))
(assert (= p53 (not (= x50 (_ bv0 384)))))
(assert (= x52 (bvnot x51)))
(assert (= x51 (ite (= x50 (_ bv0 384)) (_ bv1 1) (_ bv0 1))))
(assert (= x50 (x30 x44 x49)))
(assert (= x49 (x28 x45 x48)))
(assert (= x48 (x28 x46 x47)))
(assert (= x47 (x26 x25)))
(assert (= x46 (concat (concat (concat (concat (concat (concat (concat (concat (concat (concat (concat (select x2 (_ bv11 4)) (select x2 (_ bv10 4))) (select x2 (_ bv9 4))) (select x2 (_ bv8 4))) (select x2 (_ bv7 4))) (select x2 (_ bv6 4))) (select x2 (_ bv5 4))) (select x2 (_ bv4 4))) (select x2 (_ bv3 4))) (select x2 (_ bv2 4))) (select x2 (_ bv1 4))) (select x2 (_ bv0 4)))))
(assert (= x45 (concat (concat (concat (concat (concat (concat (concat (concat (concat (concat (concat (select x0 (_ bv11 4)) (select x0 (_ bv10 4))) (select x0 (_ bv9 4))) (select x0 (_ bv8 4))) (select x0 (_ bv7 4))) (select x0 (_ bv6 4))) (select x0 (_ bv5 4))) (select x0 (_ bv4 4))) (select x0 (_ bv3 4))) (select x0 (_ bv2 4))) (select x0 (_ bv1 4))) (select x0 (_ bv0 4)))))
(assert (= x44 (concat (concat (concat (concat (concat (concat (concat (concat (concat (concat (concat (select x3 (_ bv11 4)) (select x3 (_ bv10 4))) (select x3 (_ bv9 4))) (select x3 (_ bv8 4))) (select x3 (_ bv7 4))) (select x3 (_ bv6 4))) (select x3 (_ bv5 4))) (select x3 (_ bv4 4))) (select x3 (_ bv3 4))) (select x3 (_ bv2 4))) (select x3 (_ bv1 4))) (select x3 (_ bv0 4)))))
(assert (= p43 (or p40 (= x35 (_ bv0 384)))))
(assert (= x42 (bvor x39 x41)))
(assert (= x41 (ite (= x35 (_ bv0 384)) (_ bv1 1) (_ bv0 1))))
(assert (= p40 (and p34 p38)))
(assert (= x39 (bvand x33 x37)))
(assert (= p38 (not (= x35 (_ bv0 384)))))
(assert (= x37 (bvnot x36)))
(assert (= x36 (ite (= x35 (_ bv0 384)) (_ bv1 1) (_ bv0 1))))
(assert (= x35 (concat (concat (concat (concat (concat (concat (concat (concat (concat (concat (concat (select x2 (_ bv11 4)) (select x2 (_ bv10 4))) (select x2 (_ bv9 4))) (select x2 (_ bv8 4))) (select x2 (_ bv7 4))) (select x2 (_ bv6 4))) (select x2 (_ bv5 4))) (select x2 (_ bv4 4))) (select x2 (_ bv3 4))) (select x2 (_ bv2 4))) (select x2 (_ bv1 4))) (select x2 (_ bv0 4)))))
(assert (= p34 (not (= x31 (_ bv0 384)))))
(assert (= x33 (bvnot x32)))
(assert (= x32 (ite (= x31 (_ bv0 384)) (_ bv1 1) (_ bv0 1))))
(assert (= x31 (x30 x23 x29)))
(assert (= x29 (x28 x24 x27)))
(assert (= x27 (x26 x25)))
(assert (= x25 (concat (concat (concat (concat (concat (concat (concat (concat (concat (concat (concat (select x2 (_ bv11 4)) (select x2 (_ bv10 4))) (select x2 (_ bv9 4))) (select x2 (_ bv8 4))) (select x2 (_ bv7 4))) (select x2 (_ bv6 4))) (select x2 (_ bv5 4))) (select x2 (_ bv4 4))) (select x2 (_ bv3 4))) (select x2 (_ bv2 4))) (select x2 (_ bv1 4))) (select x2 (_ bv0 4)))))
(assert (= x24 (concat (concat (concat (concat (concat (concat (concat (concat (concat (concat (concat (select x1 (_ bv11 4)) (select x1 (_ bv10 4))) (select x1 (_ bv9 4))) (select x1 (_ bv8 4))) (select x1 (_ bv7 4))) (select x1 (_ bv6 4))) (select x1 (_ bv5 4))) (select x1 (_ bv4 4))) (select x1 (_ bv3 4))) (select x1 (_ bv2 4))) (select x1 (_ bv1 4))) (select x1 (_ bv0 4)))))
(assert (= x23 (concat (concat (concat (concat (concat (concat (concat (concat (concat (concat (concat (select x4 (_ bv11 4)) (select x4 (_ bv10 4))) (select x4 (_ bv9 4))) (select x4 (_ bv8 4))) (select x4 (_ bv7 4))) (select x4 (_ bv6 4))) (select x4 (_ bv5 4))) (select x4 (_ bv4 4))) (select x4 (_ bv3 4))) (select x4 (_ bv2 4))) (select x4 (_ bv1 4))) (select x4 (_ bv0 4)))))
(assert true)
(assert (= (select x22 (_ bv31 5)) (_ bv0 32)))
(assert (= (select x22 (_ bv30 5)) (_ bv0 32)))
(assert (= (select x22 (_ bv29 5)) (_ bv0 32)))
(assert (= (select x22 (_ bv28 5)) (_ bv0 32)))
(assert (= (select x22 (_ bv27 5)) (_ bv0 32)))
(assert (= (select x22 (_ bv26 5)) (_ bv0 32)))
(assert (= (select x22 (_ bv25 5)) (_ bv0 32)))
(assert (= (select x22 (_ bv24 5)) (_ bv0 32)))
(assert (= (select x21 (_ bv15 4)) (_ bv0 32)))
(assert (= (select x21 (_ bv14 4)) (_ bv0 32)))
(assert (= (select x21 (_ bv13 4)) (_ bv0 32)))
(assert (= (select x21 (_ bv12 4)) (_ bv0 32)))
(assert (= (select x20 (_ bv15 4)) (_ bv0 32)))
(assert (= (select x20 (_ bv14 4)) (_ bv0 32)))
(assert (= (select x20 (_ bv13 4)) (_ bv0 32)))
(assert (= (select x20 (_ bv12 4)) (_ bv0 32)))
(assert (= (select x19 (_ bv31 5)) (_ bv0 32)))
(assert (= (select x19 (_ bv30 5)) (_ bv0 32)))
(assert (= (select x19 (_ bv29 5)) (_ bv0 32)))
(assert (= (select x19 (_ bv28 5)) (_ bv0 32)))
(assert (= (select x19 (_ bv27 5)) (_ bv0 32)))
(assert (= (select x19 (_ bv26 5)) (_ bv0 32)))
(assert (= (select x19 (_ bv25 5)) (_ bv0 32)))
(assert (= (select x19 (_ bv24 5)) (_ bv0 32)))
(assert (= (select x18 (_ bv31 5)) (_ bv0 32)))
(assert (= (select x18 (_ bv30 5)) (_ bv0 32)))
(assert (= (select x18 (_ bv29 5)) (_ bv0 32)))
(assert (= (select x18 (_ bv28 5)) (_ bv0 32)))
(assert (= (select x18 (_ bv27 5)) (_ bv0 32)))
(assert (= (select x18 (_ bv26 5)) (_ bv0 32)))
(assert (= (select x18 (_ bv25 5)) (_ bv0 32)))
(assert (= (select x18 (_ bv24 5)) (_ bv0 32)))
(assert (= (select x17 (_ bv31 5)) (_ bv0 32)))
(assert (= (select x17 (_ bv30 5)) (_ bv0 32)))
(assert (= (select x17 (_ bv29 5)) (_ bv0 32)))
(assert (= (select x17 (_ bv28 5)) (_ bv0 32)))
(assert (= (select x17 (_ bv27 5)) (_ bv0 32)))
(assert (= (select x17 (_ bv26 5)) (_ bv0 32)))
(assert (= (select x17 (_ bv25 5)) (_ bv0 32)))
(assert (= (select x17 (_ bv24 5)) (_ bv0 32)))
(assert (= (select x16 (_ bv31 5)) (_ bv0 32)))
(assert (= (select x16 (_ bv30 5)) (_ bv0 32)))
(assert (= (select x16 (_ bv29 5)) (_ bv0 32)))
(assert (= (select x16 (_ bv28 5)) (_ bv0 32)))
(assert (= (select x16 (_ bv27 5)) (_ bv0 32)))
(assert (= (select x16 (_ bv26 5)) (_ bv0 32)))
(assert (= (select x16 (_ bv25 5)) (_ bv0 32)))
(assert (= (select x16 (_ bv24 5)) (_ bv0 32)))
(assert (= (select x15 (_ bv31 5)) (_ bv0 32)))
(assert (= (select x15 (_ bv30 5)) (_ bv0 32)))
(assert (= (select x15 (_ bv29 5)) (_ bv0 32)))
(assert (= (select x15 (_ bv28 5)) (_ bv0 32)))
(assert (= (select x15 (_ bv27 5)) (_ bv0 32)))
(assert (= (select x15 (_ bv26 5)) (_ bv0 32)))
(assert (= (select x15 (_ bv25 5)) (_ bv0 32)))
(assert (= (select x15 (_ bv24 5)) (_ bv0 32)))
(assert (= (select x14 (_ bv31 5)) (_ bv0 32)))
(assert (= (select x14 (_ bv30 5)) (_ bv0 32)))
(assert (= (select x14 (_ bv29 5)) (_ bv0 32)))
(assert (= (select x14 (_ bv28 5)) (_ bv0 32)))
(assert (= (select x14 (_ bv27 5)) (_ bv0 32)))
(assert (= (select x14 (_ bv26 5)) (_ bv0 32)))
(assert (= (select x14 (_ bv25 5)) (_ bv0 32)))
(assert (= (select x14 (_ bv24 5)) (_ bv0 32)))
(assert (= (select x13 (_ bv31 5)) (_ bv0 32)))
(assert (= (select x13 (_ bv30 5)) (_ bv0 32)))
(assert (= (select x13 (_ bv29 5)) (_ bv0 32)))
(assert (= (select x13 (_ bv28 5)) (_ bv0 32)))
(assert (= (select x13 (_ bv27 5)) (_ bv0 32)))
(assert (= (select x13 (_ bv26 5)) (_ bv0 32)))
(assert (= (select x13 (_ bv25 5)) (_ bv0 32)))
(assert (= (select x13 (_ bv24 5)) (_ bv0 32)))
(assert (= (select x12 (_ bv31 5)) (_ bv0 32)))
(assert (= (select x12 (_ bv30 5)) (_ bv0 32)))
(assert (= (select x12 (_ bv29 5)) (_ bv0 32)))
(assert (= (select x12 (_ bv28 5)) (_ bv0 32)))
(assert (= (select x12 (_ bv27 5)) (_ bv0 32)))
(assert (= (select x12 (_ bv26 5)) (_ bv0 32)))
(assert (= (select x12 (_ bv25 5)) (_ bv0 32)))
(assert (= (select x12 (_ bv24 5)) (_ bv0 32)))
(assert (= (select x11 (_ bv31 5)) (_ bv0 32)))
(assert (= (select x11 (_ bv30 5)) (_ bv0 32)))
(assert (= (select x11 (_ bv29 5)) (_ bv0 32)))
(assert (= (select x11 (_ bv28 5)) (_ bv0 32)))
(assert (= (select x11 (_ bv27 5)) (_ bv0 32)))
(assert (= (select x11 (_ bv26 5)) (_ bv0 32)))
(assert (= (select x11 (_ bv25 5)) (_ bv0 32)))
(assert (= (select x11 (_ bv24 5)) (_ bv0 32)))
(assert (= (select x10 (_ bv31 5)) (_ bv0 32)))
(assert (= (select x10 (_ bv30 5)) (_ bv0 32)))
(assert (= (select x10 (_ bv29 5)) (_ bv0 32)))
(assert (= (select x10 (_ bv28 5)) (_ bv0 32)))
(assert (= (select x10 (_ bv27 5)) (_ bv0 32)))
(assert (= (select x10 (_ bv26 5)) (_ bv0 32)))
(assert (= (select x10 (_ bv25 5)) (_ bv0 32)))
(assert (= (select x10 (_ bv24 5)) (_ bv0 32)))
(assert (= (select x9 (_ bv31 5)) (_ bv0 32)))
(assert (= (select x9 (_ bv30 5)) (_ bv0 32)))
(assert (= (select x9 (_ bv29 5)) (_ bv0 32)))
(assert (= (select x9 (_ bv28 5)) (_ bv0 32)))
(assert (= (select x9 (_ bv27 5)) (_ bv0 32)))
(assert (= (select x9 (_ bv26 5)) (_ bv0 32)))
(assert (= (select x9 (_ bv25 5)) (_ bv0 32)))
(assert (= (select x9 (_ bv24 5)) (_ bv0 32)))
(assert (= (select x8 (_ bv15 4)) (_ bv0 32)))
(assert (= (select x8 (_ bv14 4)) (_ bv0 32)))
(assert (= (select x8 (_ bv13 4)) (_ bv0 32)))
(assert (= (select x8 (_ bv12 4)) (_ bv0 32)))
(assert (= (select x7 (_ bv15 4)) (_ bv0 32)))
(assert (= (select x7 (_ bv14 4)) (_ bv0 32)))
(assert (= (select x7 (_ bv13 4)) (_ bv0 32)))
(assert (= (select x7 (_ bv12 4)) (_ bv0 32)))
(assert (= (select x6 (_ bv15 4)) (_ bv0 32)))
(assert (= (select x6 (_ bv14 4)) (_ bv0 32)))
(assert (= (select x6 (_ bv13 4)) (_ bv0 32)))
(assert (= (select x6 (_ bv12 4)) (_ bv0 32)))
(assert (= (select x5 (_ bv31 5)) (_ bv0 32)))
(assert (= (select x5 (_ bv30 5)) (_ bv0 32)))
(assert (= (select x5 (_ bv29 5)) (_ bv0 32)))
(assert (= (select x5 (_ bv28 5)) (_ bv0 32)))
(assert (= (select x5 (_ bv27 5)) (_ bv0 32)))
(assert (= (select x5 (_ bv26 5)) (_ bv0 32)))
(assert (= (select x5 (_ bv25 5)) (_ bv0 32)))
(assert (= (select x5 (_ bv24 5)) (_ bv0 32)))
(assert (= (select x4 (_ bv15 4)) (_ bv0 32)))
(assert (= (select x4 (_ bv14 4)) (_ bv0 32)))
(assert (= (select x4 (_ bv13 4)) (_ bv0 32)))
(assert (= (select x4 (_ bv12 4)) (_ bv0 32)))
(assert (= (select x3 (_ bv15 4)) (_ bv0 32)))
(assert (= (select x3 (_ bv14 4)) (_ bv0 32)))
(assert (= (select x3 (_ bv13 4)) (_ bv0 32)))
(assert (= (select x3 (_ bv12 4)) (_ bv0 32)))
(assert (= (select x2 (_ bv15 4)) (_ bv0 32)))
(assert (= (select x2 (_ bv14 4)) (_ bv0 32)))
(assert (= (select x2 (_ bv13 4)) (_ bv0 32)))
(assert (= (select x2 (_ bv12 4)) (_ bv0 32)))
(assert (= (select x1 (_ bv15 4)) (_ bv0 32)))
(assert (= (select x1 (_ bv14 4)) (_ bv0 32)))
(assert (= (select x1 (_ bv13 4)) (_ bv0 32)))
(assert (= (select x1 (_ bv12 4)) (_ bv0 32)))
(assert (= (select x0 (_ bv15 4)) (_ bv0 32)))
(assert (= (select x0 (_ bv14 4)) (_ bv0 32)))
(assert (= (select x0 (_ bv13 4)) (_ bv0 32)))
(assert (= (select x0 (_ bv12 4)) (_ bv0 32)))
(assert (not (=> p72 p242)))
(check-sat)
(exit)
